628,433
1023,517
829,429
657,389
427,152
245,89
512,283
635,702
611,850
709,583
718,520
708,491
822,212
898,-21
874,140
734,379
769,420
966,314
567,443
368,507
207,481
591,406
641,326
558,237
387,257
660,427
776,593
810,805
1137,554
847,919
399,794
708,459
491,32
382,-6
532,112
745,207
653,229
